Gurobi Optimizer version 9.1.2 build v9.1.2rc0 (linux64)
Thread count: 36 physical cores, 72 logical processors, using up to 32 threads
Optimize a model with 12 rows, 57 columns and 590 nonzeros
Model fingerprint: 0xf32eec78
Model has 47 quadratic constraints
Coefficient statistics:
  Matrix range     [2e-05, 3e+00]
  QMatrix range    [1e+00, 1e+00]
  QLMatrix range   [1e+00, 1e+00]
  Objective range  [8e-03, 7e-01]
  Bounds range     [1e+00, 1e+00]
  RHS range        [1e+00, 1e+00]
Presolve removed 9 rows and 0 columns

Continuous model is non-convex -- solving as a MIP.

Presolve removed 9 rows and 0 columns
Presolve time: 0.00s
Presolved: 189 rows, 57 columns, 443 nonzeros
Presolved model has 47 bilinear constraint(s)
Variable types: 57 continuous, 0 integer (0 binary)

Root relaxation: objective -1.743721e+00, 44 iterations, 0.00 seconds

    Nodes    |    Current Node    |     Objective Bounds      |     Work
 Expl Unexpl |  Obj  Depth IntInf | Incumbent    BestBd   Gap | It/Node Time

     0     0   -1.74372    0   38          -   -1.74372      -     -    0s
H    0     0                       0.6147548   -1.74372   384%     -    0s
     0     0   -1.64739    0    1    0.61475   -1.64739   368%     -    0s
H    0     0                      -1.6450460   -1.64739  0.14%     -    0s
     0     0     cutoff    0        -1.64505   -1.64505  0.00%     -    0s

Cutting planes:
  RLT: 25
  BQP: 3

Explored 1 nodes (76 simplex iterations) in 0.01 seconds
Thread count was 32 (of 72 available processors)

Solution count 2: -1.64505 0.614755 
No other solutions better than -1.64505

Optimal solution found (tolerance 1.00e-04)
Best objective -1.645045978473e+00, best bound -1.645045978473e+00, gap 0.0000%

User-callback calls 78, time in user-callback 0.00 sec
Gurobi Optimizer version 9.1.2 build v9.1.2rc0 (linux64)
Thread count: 36 physical cores, 72 logical processors, using up to 32 threads
Optimize a model with 24 rows, 125 columns and 2580 nonzeros
Model fingerprint: 0x168d5e7a
Model has 105 quadratic constraints
Coefficient statistics:
  Matrix range     [5e-06, 5e+01]
  QMatrix range    [1e+00, 1e+00]
  QLMatrix range   [1e+00, 1e+00]
  Objective range  [7e-03, 9e-01]
  Bounds range     [1e+00, 1e+00]
  RHS range        [1e+00, 1e+00]
Presolve removed 10 rows and 0 columns

Continuous model is non-convex -- solving as a MIP.

Presolve removed 10 rows and 0 columns
Presolve time: 0.00s
Presolved: 429 rows, 125 columns, 2142 nonzeros
Presolved model has 105 bilinear constraint(s)
Variable types: 125 continuous, 0 integer (0 binary)

Root relaxation: objective -3.194891e+00, 125 iterations, 0.00 seconds

    Nodes    |    Current Node    |     Objective Bounds      |     Work
 Expl Unexpl |  Obj  Depth IntInf | Incumbent    BestBd   Gap | It/Node Time

     0     0   -3.19489    0   95          -   -3.19489      -     -    0s
H    0     0                      -1.0898986   -3.19489   193%     -    0s
     0     0   -2.83530    0   72   -1.08990   -2.83530   160%     -    0s
H    0     0                      -1.3123295   -2.83530   116%     -    0s
     0     0   -2.81522    0   52   -1.31233   -2.81522   115%     -    0s
     0     0   -2.76008    0   84   -1.31233   -2.76008   110%     -    0s
H    0     0                      -1.4075904   -2.76008  96.1%     -    0s
     0     0   -2.74998    0   84   -1.40759   -2.74998  95.4%     -    0s
     0     0   -2.73078    0   55   -1.40759   -2.73078  94.0%     -    0s
H    0     0                      -1.5398803   -2.73078  77.3%     -    0s
H    0     0                      -1.5398807   -2.73078  77.3%     -    0s
     0     0   -2.73071    0   55   -1.53988   -2.73071  77.3%     -    0s
     0     0   -2.72577    0   61   -1.53988   -2.72577  77.0%     -    0s
     0     0   -2.72277    0   65   -1.53988   -2.72277  76.8%     -    0s
     0     0   -2.72124    0   63   -1.53988   -2.72124  76.7%     -    0s
     0     0   -2.72122    0   63   -1.53988   -2.72122  76.7%     -    0s
H    0     0                      -2.2111451   -2.72122  23.1%     -    0s
H    0     0                      -2.2467021   -2.72122  21.1%     -    0s
H    0     0                      -2.2559328   -2.72122  20.6%     -    0s
     0     2   -2.72122    0   63   -2.25593   -2.72122  20.6%     -    0s
*  442   261              18      -2.2560667   -2.53414  12.3%  30.7    0s
*  538   333              16      -2.2573906   -2.53414  12.3%  27.7    0s
*  652   445              24      -2.2718561   -2.53414  11.5%  24.6    0s
*  833   505              30      -2.2953627   -2.48518  8.27%  21.2    0s
*  910   609              32      -2.3560120   -2.48518  5.48%  20.1    0s
* 1014   609              34      -2.3597551   -2.48518  5.32%  19.0    0s
* 1217   637              22      -2.3646593   -2.43461  2.96%  17.6    0s
* 1218   637              22      -2.3646594   -2.43461  2.96%  17.6    0s
* 1306   728              23      -2.3787919   -2.41652  1.59%  17.2    0s
* 1315   728              24      -2.3815223   -2.41652  1.47%  17.2    0s
* 1498   728              18      -2.3846338   -2.41652  1.34%  15.7    0s
* 1710   458              14      -2.3847771   -2.38553  0.03%  14.3    0s
* 1718   458              15      -2.3847807   -2.38553  0.03%  14.3    0s
* 1731   458              17      -2.3847810   -2.38553  0.03%  14.2    0s

Cutting planes:
  RLT: 48
  BQP: 7
  PSD: 28

Explored 2230 nodes (25141 simplex iterations) in 0.56 seconds
Thread count was 32 (of 72 available processors)

Solution count 10: -2.38478 -2.38478 -2.38463 ... -2.27186

Optimal solution found (tolerance 1.00e-04)
Best objective -2.384781043755e+00, best bound -2.384815635511e+00, gap 0.0015%

User-callback calls 4737, time in user-callback 0.00 sec



objective value: -2.384781043755287
objective bound: -2.384815635511333
x_opt: [0.0, 0.0, 1.0, 5.092362078892854e-18, 1.0, 0.6715518913992318, 1.0, 1.0, 1.0, 0.0, 0.0, 0.1978231454912463, 1.9796883976067145e-6, 0.0, 0.0, 0.4940538806856385, 0.0, -6.477023778428403e-16, 0.005518269279810429, 0.0]
GUROBI solution time: 0.5566320419311523




